words_hard_train/7146.qaiger
aag 154 24 0 1 130
2
4
12
14
18
22
26
30
34
44
52
68
84
100
116
132
146
176
186
194
204
232
256
278
308
6 2 4
8 3 5
10 7 9
16 13 15
20 16 19
24 20 23
28 24 27
32 28 31
36 32 35
38 10 37
40 11 36
42 39 41
46 12 44
48 12 14
50 49 17
54 51 53
56 50 52
58 55 57
60 46 58
62 61 57
64 17 18
66 65 21
70 67 69
72 66 68
74 71 73
76 63 74
78 77 73
80 21 22
82 81 25
86 83 85
88 82 84
90 87 89
92 79 90
94 93 89
96 25 26
98 97 29
102 99 101
104 98 100
106 103 105
108 95 106
110 109 105
112 29 30
114 113 33
118 115 117
120 114 116
122 119 121
124 111 122
126 125 121
128 33 34
130 129 37
134 131 133
136 130 132
138 135 137
140 127 138
142 141 137
144 43 143
148 145 147
150 42 142
152 148 151
154 5 133
156 154 117
158 156 101
160 158 85
162 160 69
164 162 53
166 152 164
168 161 68
170 169 163
172 110 123
174 173 125
178 175 177
180 171 178
182 62 75
184 183 77
188 185 187
190 188 116
192 191 157
196 155 195
198 13 45
200 199 47
202 201 4
206 202 205
208 207 133
210 196 209
212 47 59
214 213 61
216 210 215
218 206 132
220 217 219
222 189 117
224 221 223
226 192 225
228 78 91
230 229 93
234 231 233
236 157 100
238 237 159
240 235 238
242 227 241
244 234 239
246 243 245
248 159 84
250 249 161
252 94 107
254 253 109
258 255 257
260 250 259
262 247 261
264 251 258
266 263 265
268 181 266
270 170 179
272 269 271
274 126 139
276 275 141
280 277 279
282 163 52
284 283 165
286 281 284
288 272 287
290 280 285
292 289 291
294 292 44
296 166 294
298 167 295
300 153 165
302 293 45
304 301 303
306 298 305
308 297 307
i0 2 y2[7]
i1 1 x1[0]
i2 2 y2[0]
i3 2 y2[1]
i4 2 y2[2]
i5 2 y2[3]
i6 2 y2[4]
i7 2 y2[5]
i8 2 y2[6]
i9 1 x1[7]
i10 1 x1[6]
i11 1 x1[5]
i12 1 x1[4]
i13 1 x1[3]
i14 1 x1[2]
i15 1 x1[1]
i16 2 y1[7]
i17 2 y1[5]
i18 2 y1[2]
i19 2 y1[1]
i20 2 y1[0]
i21 2 y1[3]
i22 2 y1[4]
i23 2 y1[6]
o0 bv[0]
c
simplified
  >=
    or
      2 y1
      subtract
        reverse
          1 x1
        2 y2
    1 x1
