words_hard_train/7146.qaiger.qdimacs
p cnf 154 391
a 2 34 58 66 42 50 22 26 0
e 1 3 4 5 6 7 8 9 10 11 12 13 14 15 16 17 18 19 20 21 23 24 25 27 28 29 30 31 32 33 35 36 37 38 39 40 41 43 44 45 46 47 48 49 51 52 53 54 55 56 57 59 60 61 62 63 64 65 67 68 69 70 71 72 73 74 75 76 77 78 79 80 81 82 83 84 85 86 87 88 89 90 91 92 93 94 95 96 97 98 99 100 101 102 103 104 105 106 107 108 109 110 111 112 113 114 115 116 117 118 119 120 121 122 123 124 125 126 127 128 129 130 131 132 133 134 135 136 137 138 139 140 141 142 143 144 145 146 147 148 149 150 151 152 153 154 0
-1 -2 3 0
1 -3 0
2 -3 0
1 2 4 0
-1 -4 0
-2 -4 0
3 4 5 0
-3 -5 0
-4 -5 0
6 7 8 0
-6 -8 0
-7 -8 0
-8 9 10 0
8 -10 0
-9 -10 0
-10 11 12 0
10 -12 0
-11 -12 0
-12 13 14 0
12 -14 0
-13 -14 0
-14 15 16 0
14 -16 0
-15 -16 0
-16 17 18 0
16 -18 0
-17 -18 0
-5 18 19 0
5 -19 0
-18 -19 0
5 -18 20 0
-5 -20 0
18 -20 0
19 20 21 0
-19 -21 0
-20 -21 0
-6 -22 23 0
6 -23 0
22 -23 0
-6 -7 24 0
6 -24 0
7 -24 0
24 8 25 0
-24 -25 0
-8 -25 0
25 26 27 0
-25 -27 0
-26 -27 0
-25 -26 28 0
25 -28 0
26 -28 0
27 28 29 0
-27 -29 0
-28 -29 0
-23 -29 30 0
23 -30 0
29 -30 0
30 28 31 0
-30 -31 0
-28 -31 0
8 -9 32 0
-8 -32 0
9 -32 0
32 10 33 0
-32 -33 0
-10 -33 0
33 34 35 0
-33 -35 0
-34 -35 0
-33 -34 36 0
33 -36 0
34 -36 0
35 36 37 0
-35 -37 0
-36 -37 0
31 -37 38 0
-31 -38 0
37 -38 0
38 36 39 0
-38 -39 0
-36 -39 0
10 -11 40 0
-10 -40 0
11 -40 0
40 12 41 0
-40 -41 0
-12 -41 0
41 42 43 0
-41 -43 0
-42 -43 0
-41 -42 44 0
41 -44 0
42 -44 0
43 44 45 0
-43 -45 0
-44 -45 0
39 -45 46 0
-39 -46 0
45 -46 0
46 44 47 0
-46 -47 0
-44 -47 0
12 -13 48 0
-12 -48 0
13 -48 0
48 14 49 0
-48 -49 0
-14 -49 0
49 50 51 0
-49 -51 0
-50 -51 0
-49 -50 52 0
49 -52 0
50 -52 0
51 52 53 0
-51 -53 0
-52 -53 0
47 -53 54 0
-47 -54 0
53 -54 0
54 52 55 0
-54 -55 0
-52 -55 0
14 -15 56 0
-14 -56 0
15 -56 0
56 16 57 0
-56 -57 0
-16 -57 0
57 58 59 0
-57 -59 0
-58 -59 0
-57 -58 60 0
57 -60 0
58 -60 0
59 60 61 0
-59 -61 0
-60 -61 0
55 -61 62 0
-55 -62 0
61 -62 0
62 60 63 0
-62 -63 0
-60 -63 0
16 -17 64 0
-16 -64 0
17 -64 0
64 18 65 0
-64 -65 0
-18 -65 0
65 66 67 0
-65 -67 0
-66 -67 0
-65 -66 68 0
65 -68 0
66 -68 0
67 68 69 0
-67 -69 0
-68 -69 0
63 -69 70 0
-63 -70 0
69 -70 0
70 68 71 0
-70 -71 0
-68 -71 0
21 71 72 0
-21 -72 0
-71 -72 0
72 73 74 0
-72 -74 0
-73 -74 0
-21 -71 75 0
21 -75 0
71 -75 0
-74 75 76 0
74 -76 0
-75 -76 0
2 66 77 0
-2 -77 0
-66 -77 0
-77 58 78 0
77 -78 0
-58 -78 0
-78 50 79 0
78 -79 0
-50 -79 0
-79 42 80 0
79 -80 0
-42 -80 0
-80 34 81 0
80 -81 0
-34 -81 0
-81 26 82 0
81 -82 0
-26 -82 0
-76 -82 83 0
76 -83 0
82 -83 0
80 -34 84 0
-80 -84 0
34 -84 0
84 81 85 0
-84 -85 0
-81 -85 0
-55 61 86 0
55 -86 0
-61 -86 0
86 62 87 0
-86 -87 0
-62 -87 0
87 88 89 0
-87 -89 0
-88 -89 0
85 -89 90 0
-85 -90 0
89 -90 0
-31 37 91 0
31 -91 0
-37 -91 0
91 38 92 0
-91 -92 0
-38 -92 0
92 93 94 0
-92 -94 0
-93 -94 0
-94 -58 95 0
94 -95 0
58 -95 0
95 78 96 0
-95 -96 0
-78 -96 0
77 97 98 0
-77 -98 0
-97 -98 0
6 22 99 0
-6 -99 0
-22 -99 0
99 23 100 0
-99 -100 0
-23 -100 0
100 -2 101 0
-100 -101 0
2 -101 0
-101 102 103 0
101 -103 0
-102 -103 0
103 66 104 0
-103 -104 0
-66 -104 0
-98 104 105 0
98 -105 0
-104 -105 0
23 29 106 0
-23 -106 0
-29 -106 0
106 30 107 0
-106 -107 0
-30 -107 0
-105 107 108 0
105 -108 0
-107 -108 0
-103 -66 109 0
103 -109 0
66 -109 0
108 109 110 0
-108 -110 0
-109 -110 0
94 58 111 0
-94 -111 0
-58 -111 0
110 111 112 0
-110 -112 0
-111 -112 0
-96 112 113 0
96 -113 0
-112 -113 0
-39 45 114 0
39 -114 0
-45 -114 0
114 46 115 0
-114 -115 0
-46 -115 0
115 116 117 0
-115 -117 0
-116 -117 0
78 -50 118 0
-78 -118 0
50 -118 0
118 79 119 0
-118 -119 0
-79 -119 0
117 -119 120 0
-117 -120 0
119 -120 0
113 120 121 0
-113 -121 0
-120 -121 0
-117 119 122 0
117 -122 0
-119 -122 0
121 122 123 0
-121 -123 0
-122 -123 0
79 -42 124 0
-79 -124 0
42 -124 0
124 80 125 0
-124 -125 0
-80 -125 0
-47 53 126 0
47 -126 0
-53 -126 0
126 54 127 0
-126 -127 0
-54 -127 0
127 128 129 0
-127 -129 0
-128 -129 0
-125 129 130 0
125 -130 0
-129 -130 0
123 130 131 0
-123 -131 0
-130 -131 0
125 -129 132 0
-125 -132 0
129 -132 0
131 132 133 0
-131 -133 0
-132 -133 0
90 -133 134 0
-90 -134 0
133 -134 0
-85 89 135 0
85 -135 0
-89 -135 0
134 135 136 0
-134 -136 0
-135 -136 0
-63 69 137 0
63 -137 0
-69 -137 0
137 70 138 0
-137 -138 0
-70 -138 0
138 139 140 0
-138 -140 0
-139 -140 0
81 -26 141 0
-81 -141 0
26 -141 0
141 82 142 0
-141 -142 0
-82 -142 0
140 -142 143 0
-140 -143 0
142 -143 0
-136 143 144 0
136 -144 0
-143 -144 0
-140 142 145 0
140 -145 0
-142 -145 0
144 145 146 0
-144 -146 0
-145 -146 0
-146 -22 147 0
146 -147 0
22 -147 0
-83 -147 148 0
83 -148 0
147 -148 0
83 147 149 0
-83 -149 0
-147 -149 0
76 82 150 0
-76 -150 0
-82 -150 0
146 22 151 0
-146 -151 0
-22 -151 0
150 151 152 0
-150 -152 0
-151 -152 0
-149 152 153 0
149 -153 0
-152 -153 0
148 153 154 0
-148 -154 0
-153 -154 0
154 0
